%BLOCK LATTICE_CART
  5.383167532    0.             0.
  0.000734343    5.383371485    0.
 -2.691188517   -2.690281344    5.363541077
%ENDBLOCK LATTICE_CART

%BLOCK POSITIONS_ABS
Cu   2.682809295    2.683156625    5.363394062 
Cu  -0.009041325    2.682428655    2.681579382 
 S   4.126749730    1.284376294    1.394784566 
 S   1.389220036    1.435645515    3.968573077 
 S  -1.407051425   -1.453149659    3.968664901 
 S   1.238505464    4.080258295    1.394781938 
Sn  -0.009025747   -0.008450010    5.363288829 
Zn   2.682258356   -0.009238873    2.681547898 
%ENDBLOCK POSITIONS_ABS
